c Result of efficient AIG-to-CNF conversion using package CNF
p cnf 495 1699
2 -3 -159 -235 -288 0
-2 288 0
-2 3 0
-2 235 0
-2 159 0
3 -4 -95 -124 -142 0
-3 142 0
-3 4 0
-3 124 0
-3 95 0
4 -5 -62 -69 -77 0
-4 77 0
-4 5 0
-4 69 0
-4 62 0
5 -6 37 -39 -47 0
-5 47 0
-5 6 0
-5 39 0
-5 -37 0
6 401 -402 7 8 0
6 401 402 -7 8 0
6 -401 402 7 8 0
6 -401 -402 -7 8 0
-6 -8 0
-6 401 402 7 0
-6 401 -402 -7 0
-6 -401 402 -7 0
-6 -401 -402 7 0
7 403 -434 0
7 -403 434 0
-7 -403 -434 0
-7 403 434 0
-8 341 -342 0
-8 342 9 0
-8 -342 -9 0
8 342 -9 0
8 -341 -342 9 0
9 404 -10 0
-9 -404 0
-9 10 0
10 405 -11 0
-10 -405 0
-10 11 0
11 406 -12 0
-11 -406 0
-11 12 0
12 407 -13 0
-12 -407 0
-12 13 0
13 408 -14 0
-13 -408 0
-13 14 0
14 409 -15 0
-14 -409 0
-14 15 0
15 410 -16 0
-15 -410 0
-15 16 0
16 411 -17 0
-16 -411 0
-16 17 0
17 412 -18 0
-17 -412 0
-17 18 0
18 413 -19 0
-18 -413 0
-18 19 0
19 414 -20 0
-19 -414 0
-19 20 0
20 415 -21 0
-20 -415 0
-20 21 0
21 416 -22 0
-21 -416 0
-21 22 0
22 417 -23 0
-22 -417 0
-22 23 0
23 418 -24 0
-23 -418 0
-23 24 0
24 419 -25 0
-24 -419 0
-24 25 0
25 420 -26 0
-25 -420 0
-25 26 0
26 421 -27 0
-26 -421 0
-26 27 0
27 422 -28 0
-27 -422 0
-27 28 0
28 423 -29 0
-28 -423 0
-28 29 0
29 424 -30 0
-29 -424 0
-29 30 0
30 425 -31 0
-30 -425 0
-30 31 0
31 426 -32 0
-31 -426 0
-31 32 0
32 427 -33 0
-32 -427 0
-32 33 0
33 428 -34 0
-33 -428 0
-33 34 0
34 429 -35 0
-34 -429 0
-34 35 0
35 430 -36 0
-35 -430 0
-35 36 0
36 431 432 -493 0
-36 493 0
-36 -432 0
-36 -431 0
-37 -341 -9 38 0
-37 435 9 38 0
37 -38 0
37 -435 9 0
37 341 -9 0
38 341 -342 435 436 0
-38 342 0
-38 -436 0
-38 -341 0
-38 -435 0
39 40 -41 43 46 0
-39 -46 0
-39 -40 0
-39 -43 0
-39 41 0
-40 435 -436 0
-40 -341 -435 436 0
-40 341 435 0
-40 -342 436 0
40 -435 -436 0
40 341 342 -435 0
40 -341 342 435 436 0
41 342 -42 0
41 341 -42 0
41 435 -42 0
-41 42 0
-41 -341 -342 -435 0
42 -437 0
42 -436 0
42 -343 -344 0
-42 343 436 437 0
-42 344 436 437 0
-43 436 44 45 0
-43 437 44 45 0
43 -45 0
43 -44 0
43 -436 -437 0
44 -343 -344 -436 0
-44 343 0
-44 344 0
-44 436 0
45 343 -344 437 438 0
-45 344 0
-45 -438 0
-45 -343 0
-45 -437 0
-46 437 -438 0
-46 343 437 0
-46 343 -344 438 0
-46 -344 437 0
-46 -343 344 -437 438 0
46 -343 -344 -437 0
46 343 344 -437 0
46 -437 -438 0
46 -343 344 437 438 0
47 -48 54 56 -57 0
-47 57 0
-47 48 0
-47 -56 0
-47 -54 0
48 -49 50 52 -53 0
-48 53 0
-48 49 0
-48 -52 0
-48 -50 0
49 438 -439 0
49 -438 439 0
49 -345 -346 439 0
-49 -438 -439 0
-49 345 438 439 0
-49 346 438 439 0
-50 346 51 0
-50 345 51 0
-50 438 51 0
50 -51 0
50 -345 -346 -438 0
-51 -439 0
-51 345 346 0
-51 -440 0
-51 -345 -346 0
51 345 -346 439 440 0
51 -345 346 439 440 0
-52 439 0
-52 -345 346 440 0
-52 345 -346 440 0
52 -439 -440 0
52 -345 -346 -439 0
52 345 346 -439 0
53 440 -441 0
53 -440 441 0
53 -347 -348 441 0
-53 -440 -441 0
-53 347 440 441 0
-53 348 440 441 0
-54 348 55 0
-54 347 55 0
-54 440 55 0
54 -55 0
54 -347 -348 -440 0
-55 -441 0
-55 347 348 0
-55 -442 0
-55 -347 -348 0
55 347 -348 441 442 0
55 -347 348 441 442 0
-56 441 0
-56 -347 348 442 0
-56 347 -348 442 0
56 -441 -442 0
56 -347 -348 -441 0
56 347 348 -441 0
57 -58 59 60 61 0
-57 -61 0
-57 -60 0
-57 58 0
-57 -59 0
58 442 -443 0
58 -442 443 0
58 -349 -350 443 0
-58 -442 -443 0
-58 349 442 443 0
-58 350 442 443 0
59 -349 -350 -442 0
-59 349 0
-59 350 0
-59 442 0
60 349 -350 443 444 0
-60 350 0
-60 -444 0
-60 -349 0
-60 -443 0
-61 443 -444 0
-61 349 444 0
-61 -350 443 0
-61 -443 444 0
61 -443 -444 0
61 -349 350 443 444 0
62 -63 -65 66 -67 0
-62 67 0
-62 63 0
-62 -66 0
-62 65 0
63 443 -64 0
63 -349 350 -64 0
63 349 -350 -64 0
-63 64 0
-63 349 350 -443 0
-63 -349 -350 -443 0
-64 351 444 445 0
64 -351 0
64 -445 0
64 -444 0
65 444 -445 0
65 351 -352 445 0
65 -352 444 0
65 352 -444 445 0
-65 -444 -445 0
-65 352 444 445 0
-65 -351 -352 -444 0
-66 -445 446 0
-66 -351 -352 445 0
-66 445 -446 0
-66 351 352 446 0
66 -445 -446 0
66 351 -352 445 446 0
66 -351 352 445 446 0
67 445 -68 0
67 -351 352 -68 0
67 351 -352 -68 0
-67 68 0
-67 351 352 -445 0
-67 -351 -352 -445 0
-68 353 446 447 0
68 -353 0
68 -447 0
68 -446 0
69 -70 71 -72 -74 0
-69 74 0
-69 70 0
-69 72 0
-69 -71 0
70 446 -447 0
70 353 -354 447 0
70 -354 446 0
70 354 -446 447 0
-70 -446 -447 0
-70 354 446 447 0
-70 -353 -354 -446 0
-71 -447 448 0
-71 -353 -354 447 0
-71 447 -448 0
-71 353 354 448 0
71 -447 -448 0
71 353 -354 447 448 0
71 -353 354 447 448 0
72 447 -73 0
72 -353 354 -73 0
72 353 -354 -73 0
-72 73 0
-72 353 354 -447 0
-72 -353 -354 -447 0
-73 355 448 449 0
73 -355 0
73 -449 0
73 -448 0
74 -356 449 75 0
74 448 -449 75 0
74 -448 449 75 0
-74 -75 0
-74 -448 -449 0
-74 356 448 449 0
-75 356 76 0
-75 448 76 0
-75 355 76 0
75 -76 0
75 -355 -356 -448 0
76 355 -356 449 450 0
-76 356 0
-76 -450 0
-76 -355 0
-76 -449 0
77 -78 -86 91 -92 0
-77 92 0
-77 78 0
-77 -91 0
-77 86 0
78 79 -80 82 85 0
-78 -85 0
-78 -79 0
-78 -82 0
-78 80 0
-79 449 -450 0
-79 -355 -449 450 0
-79 355 449 0
-79 -356 450 0
79 -449 -450 0
79 355 356 -449 0
79 -355 356 449 450 0
80 356 -81 0
80 355 -81 0
80 449 -81 0
-80 81 0
-80 -355 -356 -449 0
81 -451 0
81 -450 0
81 -357 -358 0
-81 357 450 451 0
-81 358 450 451 0
-82 450 83 84 0
-82 451 83 84 0
82 -84 0
82 -83 0
82 -450 -451 0
83 -357 -358 -450 0
-83 357 0
-83 358 0
-83 450 0
84 357 -358 451 452 0
-84 358 0
-84 -452 0
-84 -357 0
-84 -451 0
-85 451 -452 0
-85 -357 -451 452 0
-85 357 451 0
-85 -358 452 0
85 -451 -452 0
85 357 358 -451 0
85 -357 358 451 452 0
86 452 -87 89 0
86 453 -87 89 0
-86 -89 0
-86 87 0
-86 -452 -453 0
87 358 -88 0
87 357 -88 0
87 451 -88 0
-87 88 0
-87 -357 -358 -451 0
88 -453 0
88 -452 0
88 -359 -360 0
-88 359 452 453 0
-88 360 452 453 0
-89 360 90 0
-89 452 90 0
-89 359 90 0
89 -90 0
89 -359 -360 -452 0
90 359 -360 453 454 0
-90 360 0
-90 -454 0
-90 -359 0
-90 -453 0
-91 453 -454 0
-91 -359 -453 454 0
-91 359 453 0
-91 -360 454 0
91 -453 -454 0
91 359 360 -453 0
91 -359 360 453 454 0
92 -362 455 -93 0
92 454 -455 -93 0
92 -454 455 -93 0
-92 93 0
-92 -454 -455 0
-92 362 454 455 0
93 360 -94 0
93 453 -94 0
93 359 -94 0
-93 94 0
-93 -359 -360 -453 0
-94 361 454 455 0
94 -361 0
94 -455 0
94 -454 0
95 -96 -103 -112 -118 0
-95 118 0
-95 96 0
-95 112 0
-95 103 0
96 97 99 -100 101 0
-96 -101 0
-96 -97 0
-96 100 0
-96 -99 0
-97 362 98 0
-97 361 98 0
-97 454 98 0
97 -98 0
97 -361 -362 -454 0
-98 -455 0
-98 361 362 0
-98 -456 0
-98 -361 -362 0
98 361 -362 455 456 0
98 -361 362 455 456 0
-99 455 0
-99 -361 362 456 0
-99 361 -362 456 0
99 -455 -456 0
99 -361 -362 -455 0
99 361 362 -455 0
100 456 -457 0
100 -456 457 0
100 -363 -364 457 0
-100 -456 -457 0
-100 363 456 457 0
-100 364 456 457 0
-101 364 102 0
-101 363 102 0
-101 456 102 0
101 -102 0
101 -363 -364 -456 0
-102 -457 0
-102 363 364 0
-102 -458 0
-102 -363 -364 0
102 363 -364 457 458 0
102 -363 364 457 458 0
103 -104 107 109 -110 0
-103 110 0
-103 104 0
-103 -109 0
-103 -107 0
104 105 -106 0
-104 -105 0
-104 106 0
-105 457 0
-105 -363 364 458 0
-105 363 -364 458 0
105 -457 -458 0
105 -363 -364 -457 0
105 363 364 -457 0
106 458 -459 0
106 -458 459 0
106 -365 -366 459 0
-106 -458 -459 0
-106 365 458 459 0
-106 366 458 459 0
-107 366 108 0
-107 365 108 0
-107 458 108 0
107 -108 0
107 -365 -366 -458 0
-108 -459 0
-108 365 366 0
-108 -460 0
-108 -365 -366 0
108 365 -366 459 460 0
108 -365 366 459 460 0
-109 459 0
-109 -365 460 0
-109 -366 460 0
109 -459 -460 0
109 365 366 -459 0
110 366 -111 0
110 459 -111 0
110 365 -111 0
-110 111 0
-110 -365 -366 -459 0
-111 367 460 461 0
111 -367 0
111 -461 0
111 -460 0
112 -113 114 -115 -117 0
-112 117 0
-112 113 0
-112 115 0
-112 -114 0
113 460 -461 0
113 367 -368 461 0
113 -368 460 0
113 368 -460 461 0
-113 -460 -461 0
-113 368 460 461 0
-113 -367 -368 -460 0
-114 -461 462 0
-114 -367 -368 461 0
-114 461 -462 0
-114 367 368 462 0
114 -461 -462 0
114 367 -368 461 462 0
114 -367 368 461 462 0
115 461 -116 0
115 -367 368 -116 0
115 367 -368 -116 0
-115 116 0
-115 367 368 -461 0
-115 -367 -368 -461 0
-116 369 462 463 0
116 -369 0
116 -463 0
116 -462 0
117 462 -463 0
117 369 -370 463 0
117 -370 462 0
117 370 -462 463 0
-117 -462 -463 0
-117 370 462 463 0
-117 -369 -370 -462 0
118 119 -120 -122 123 0
-118 -123 0
-118 -119 0
-118 122 0
-118 120 0
-119 -463 464 0
-119 -369 -370 463 0
-119 463 -464 0
-119 369 370 464 0
119 -463 -464 0
119 369 -370 463 464 0
119 -369 370 463 464 0
120 463 -121 0
120 -369 370 -121 0
120 369 -370 -121 0
-120 121 0
-120 369 370 -463 0
-120 -369 -370 -463 0
-121 371 464 465 0
121 -371 0
121 -465 0
121 -464 0
122 464 -465 0
122 371 -372 465 0
122 -372 464 0
122 372 -464 465 0
-122 -464 -465 0
-122 372 464 465 0
-122 -371 -372 -464 0
-123 465 -466 0
-123 -371 -465 466 0
-123 -371 -372 466 0
-123 -372 -465 466 0
-123 371 372 465 0
123 371 372 -465 0
123 -371 372 465 466 0
123 -465 -466 0
123 371 -372 465 466 0
124 -125 130 -131 -133 0
-124 133 0
-124 125 0
-124 131 0
-124 -130 0
125 466 -126 128 0
125 467 -126 128 0
-125 -128 0
-125 126 0
-125 -466 -467 0
126 372 -127 0
126 371 -127 0
126 465 -127 0
-126 127 0
-126 -371 -372 -465 0
127 -467 0
127 -466 0
127 -373 -374 0
-127 373 466 467 0
-127 374 466 467 0
-128 374 129 0
-128 466 129 0
-128 373 129 0
128 -129 0
128 -373 -374 -466 0
129 373 -374 467 468 0
-129 374 0
-129 -468 0
-129 -373 0
-129 -467 0
-130 467 -468 0
-130 -373 -467 468 0
-130 373 467 0
-130 -374 468 0
130 -467 -468 0
130 373 374 -467 0
130 -373 374 467 468 0
131 374 -132 0
131 373 -132 0
131 467 -132 0
-131 132 0
-131 -373 -374 -467 0
132 -469 0
132 -468 0
132 -375 -376 0
-132 375 468 469 0
-132 376 468 469 0
133 134 -138 140 141 0
-133 -141 0
-133 -134 0
-133 -140 0
-133 138 0
-134 468 135 137 0
-134 469 135 137 0
134 -137 0
134 -135 0
134 -468 -469 0
-135 376 136 0
-135 468 136 0
-135 375 136 0
135 -136 0
135 -375 -376 -468 0
136 375 -376 469 470 0
-136 376 0
-136 -470 0
-136 -375 0
-136 -469 0
-137 469 -470 0
-137 -375 -469 470 0
-137 375 469 0
-137 -376 470 0
137 -469 -470 0
137 375 376 -469 0
137 -375 376 469 470 0
138 376 -139 0
138 375 -139 0
138 469 -139 0
-138 139 0
-138 -375 -376 -469 0
139 -471 0
139 -470 0
139 -377 -378 0
-139 377 470 471 0
-139 378 470 471 0
-140 470 0
-140 378 471 0
-140 377 471 0
140 -470 -471 0
140 -377 -378 -470 0
-141 -471 0
-141 377 378 0
-141 -472 0
-141 -377 -378 0
141 377 -378 471 472 0
141 -377 378 471 472 0
142 143 -144 -145 -151 0
-142 151 0
-142 -143 0
-142 145 0
-142 144 0
-143 471 0
-143 -377 378 472 0
-143 377 -378 472 0
143 -471 -472 0
143 -377 -378 -471 0
143 377 378 -471 0
144 472 -473 0
144 -472 473 0
144 -379 -380 473 0
-144 -472 -473 0
-144 379 472 473 0
-144 380 472 473 0
145 146 148 149 -150 0
-145 -148 0
-145 150 0
-145 -146 0
-145 -149 0
-146 380 147 0
-146 379 147 0
-146 472 147 0
146 -147 0
146 -379 -380 -472 0
-147 -473 0
-147 379 380 0
-147 -474 0
-147 -379 -380 0
147 379 -380 473 474 0
147 -379 380 473 474 0
-148 473 0
-148 -379 474 0
-148 -380 474 0
148 -473 -474 0
148 379 380 -473 0
149 -379 -380 -473 0
-149 379 0
-149 380 0
-149 473 0
-150 381 474 475 0
150 -381 0
150 -475 0
150 -474 0
151 -152 153 -154 -156 0
-151 156 0
-151 152 0
-151 154 0
-151 -153 0
152 474 -475 0
152 381 -382 475 0
152 -382 474 0
152 382 -474 475 0
-152 -474 -475 0
-152 382 474 475 0
-152 -381 -382 -474 0
-153 -475 476 0
-153 -381 -382 475 0
-153 475 -476 0
-153 381 382 476 0
153 -475 -476 0
153 381 -382 475 476 0
153 -381 382 475 476 0
154 475 -155 0
154 -381 382 -155 0
154 381 -382 -155 0
-154 155 0
-154 381 382 -475 0
-154 -381 -382 -475 0
-155 383 476 477 0
155 -383 0
155 -477 0
155 -476 0
156 -384 477 157 0
156 476 -477 157 0
156 -476 477 157 0
-156 -157 0
-156 -476 -477 0
-156 384 476 477 0
-157 384 158 0
-157 476 158 0
-157 383 158 0
157 -158 0
157 -383 -384 -476 0
158 383 -384 477 478 0
-158 384 0
-158 -478 0
-158 -383 0
-158 -477 0
159 -160 -195 201 -210 0
-159 210 0
-159 160 0
-159 -201 0
-159 195 0
160 -161 -179 -186 -189 0
-160 189 0
-160 161 0
-160 186 0
-160 179 0
161 -162 -170 175 -176 0
-161 176 0
-161 162 0
-161 -175 0
-161 170 0
162 163 -164 166 169 0
-162 -169 0
-162 -163 0
-162 -166 0
-162 164 0
-163 477 -478 0
-163 -383 -477 478 0
-163 383 477 0
-163 -384 478 0
163 -477 -478 0
163 383 384 -477 0
163 -383 384 477 478 0
164 384 -165 0
164 383 -165 0
164 477 -165 0
-164 165 0
-164 -383 -384 -477 0
165 -479 0
165 -478 0
165 -385 -386 0
-165 385 478 479 0
-165 386 478 479 0
-166 478 167 168 0
-166 479 167 168 0
166 -168 0
166 -167 0
166 -478 -479 0
167 -385 -386 -478 0
-167 385 0
-167 386 0
-167 478 0
168 385 -386 479 480 0
-168 386 0
-168 -480 0
-168 -385 0
-168 -479 0
-169 479 -480 0
-169 -385 -479 480 0
-169 385 479 0
-169 -386 480 0
169 -479 -480 0
169 385 386 -479 0
169 -385 386 479 480 0
170 480 -171 173 0
170 481 -171 173 0
-170 -173 0
-170 171 0
-170 -480 -481 0
171 386 -172 0
171 385 -172 0
171 479 -172 0
-171 172 0
-171 -385 -386 -479 0
172 -481 0
172 -480 0
172 -387 -388 0
-172 387 480 481 0
-172 388 480 481 0
-173 388 174 0
-173 480 174 0
-173 387 174 0
173 -174 0
173 -387 -388 -480 0
174 387 -388 481 482 0
-174 388 0
-174 -482 0
-174 -387 0
-174 -481 0
-175 481 -482 0
-175 -387 -481 482 0
-175 387 481 0
-175 -388 482 0
175 -481 -482 0
175 387 388 -481 0
175 -387 388 481 482 0
176 -390 483 -177 0
176 482 -483 -177 0
176 -482 483 -177 0
-176 177 0
-176 -482 -483 0
-176 390 482 483 0
177 388 -178 0
177 481 -178 0
177 387 -178 0
-177 178 0
-177 -387 -388 -481 0
-178 389 482 483 0
178 -389 0
178 -483 0
178 -482 0
179 180 182 -183 184 0
-179 -184 0
-179 -180 0
-179 183 0
-179 -182 0
-180 390 181 0
-180 389 181 0
-180 482 181 0
180 -181 0
180 -389 -390 -482 0
-181 -483 0
-181 389 390 0
-181 -484 0
-181 -389 -390 0
181 389 -390 483 484 0
181 -389 390 483 484 0
-182 483 0
-182 -389 390 484 0
-182 389 -390 484 0
182 -483 -484 0
182 -389 -390 -483 0
182 389 390 -483 0
183 484 -485 0
183 -484 485 0
183 -391 -392 485 0
-183 -484 -485 0
-183 391 484 485 0
-183 392 484 485 0
-184 392 185 0
-184 391 185 0
-184 484 185 0
184 -185 0
184 -391 -392 -484 0
-185 -485 0
-185 391 392 0
-185 -486 0
-185 -391 -392 0
185 391 -392 485 486 0
185 -391 392 485 486 0
186 187 -188 0
-186 -187 0
-186 188 0
-187 485 0
-187 -391 392 486 0
-187 391 -392 486 0
187 -485 -486 0
187 -391 -392 -485 0
187 391 392 -485 0
188 486 -487 0
188 -486 487 0
188 -393 -394 487 0
-188 -486 -487 0
-188 393 486 487 0
-188 394 486 487 0
189 190 192 193 -194 0
-189 -192 0
-189 194 0
-189 -190 0
-189 -193 0
-190 394 191 0
-190 393 191 0
-190 486 191 0
190 -191 0
190 -393 -394 -486 0
-191 -487 0
-191 393 394 0
-191 -488 0
-191 -393 -394 0
191 393 -394 487 488 0
191 -393 394 487 488 0
-192 487 0
-192 -393 488 0
-192 -394 488 0
192 -487 -488 0
192 393 394 -487 0
193 -393 -394 -487 0
-193 393 0
-193 394 0
-193 487 0
-194 395 488 489 0
194 -395 0
194 -489 0
194 -488 0
195 -196 197 -198 -200 0
-195 200 0
-195 196 0
-195 198 0
-195 -197 0
196 488 -489 0
196 395 -396 489 0
196 -396 488 0
196 396 -488 489 0
-196 -488 -489 0
-196 396 488 489 0
-196 -395 -396 -488 0
-197 -489 490 0
-197 -395 -396 489 0
-197 489 -490 0
-197 395 396 490 0
197 -489 -490 0
197 395 -396 489 490 0
197 -395 396 489 490 0
198 489 -199 0
198 -395 396 -199 0
198 395 -396 -199 0
-198 199 0
-198 395 396 -489 0
-198 -395 -396 -489 0
-199 397 490 491 0
199 -397 0
199 -491 0
199 -490 0
200 490 -491 0
200 397 -398 491 0
200 -398 490 0
200 398 -490 491 0
-200 -490 -491 0
-200 398 490 491 0
-200 -397 -398 -490 0
-201 202 203 205 207 0
201 -207 0
201 -202 0
201 -205 0
201 -203 0
-202 -491 -492 0
-202 -397 -398 491 0
-202 491 492 0
-202 397 398 -492 0
202 -491 492 0
202 -397 398 491 -492 0
202 397 -398 491 -492 0
-203 491 204 0
-203 -397 398 204 0
-203 397 -398 204 0
203 -204 0
203 397 398 -491 0
203 -397 -398 -491 0
204 -399 -400 492 0
-204 399 0
-204 400 0
-204 -492 0
-205 492 206 0
-205 399 400 -206 0
-205 -399 206 0
-205 -492 -206 0
205 -399 492 -206 0
205 399 -492 206 0
205 -400 492 -206 0
206 -339 -340 0
-206 339 0
-206 340 0
-207 208 -209 0
-207 -397 -398 208 0
-207 397 398 208 0
207 -208 0
207 397 -398 209 0
207 -397 398 209 0
-208 492 0
-208 -400 0
-208 -399 -206 0
208 400 -492 206 0
208 399 400 -492 0
-209 -492 -493 0
-209 492 493 0
209 492 -493 0
209 -492 493 0
210 211 -223 228 -231 0
-210 231 0
-210 -211 0
-210 -228 0
-210 223 0
-211 212 215 216 218 0
211 -218 0
211 -212 0
211 -216 0
211 -215 0
-212 209 213 0
-212 -397 398 213 0
-212 397 -398 213 0
212 -213 0
212 -397 -398 -209 0
212 397 398 -209 0
213 340 -494 214 0
-213 -214 0
-213 494 0
-213 -340 0
-214 -432 -493 0
-214 432 493 0
214 432 -493 0
214 -432 493 0
-215 -339 214 0
-215 340 -494 -214 0
-215 494 214 0
-215 339 -494 -214 0
215 494 -214 0
215 339 -494 214 0
215 -339 -340 -214 0
-216 494 217 0
-216 -494 -217 0
-216 339 340 -217 0
216 -494 217 0
216 -339 494 -217 0
216 -340 494 -217 0
-217 -399 -400 0
-217 399 400 0
217 399 -400 0
217 -399 400 0
-218 219 220 0
-218 -395 -396 219 0
-218 395 396 219 0
218 -219 0
218 395 -396 -220 0
218 -395 396 -220 0
219 339 340 -494 0
-219 494 0
-219 -340 0
-219 -339 0
220 -490 221 0
220 490 -221 0
-220 490 221 0
-220 -490 -221 0
-221 -431 -222 0
-221 431 222 0
221 431 -222 0
221 -431 222 0
222 432 -493 0
-222 -432 0
-222 493 0
223 393 -224 -226 0
223 -394 -224 -226 0
223 393 -394 -226 0
223 -393 394 224 -226 0
-223 -393 394 -224 0
-223 -393 -394 224 0
-223 226 0
-223 393 394 224 0
224 -488 225 0
224 488 -225 0
-224 488 225 0
-224 -488 -225 0
-225 -430 -36 0
-225 430 36 0
225 430 -36 0
225 -430 36 0
226 -220 227 0
226 -395 396 227 0
226 395 -396 227 0
-226 -227 0
-226 -395 -396 220 0
-226 395 396 220 0
227 393 -394 -224 0
-227 224 0
-227 394 0
-227 -393 0
-228 392 229 0
-228 391 392 0
-228 391 229 0
-228 -391 -392 -229 0
228 391 -392 -229 0
228 -391 392 -229 0
228 -391 -392 229 0
229 -486 230 0
229 486 -230 0
-229 486 230 0
-229 -486 -230 0
-230 -429 -35 0
-230 429 35 0
230 429 -35 0
230 -429 35 0
231 390 -232 233 0
231 389 390 -232 0
231 389 -232 233 0
231 -389 -390 -232 -233 0
-231 389 -390 -233 0
-231 -389 -390 233 0
-231 232 0
-231 -389 390 -233 0
-232 391 392 229 0
232 -391 0
232 -229 0
232 -392 0
233 -484 234 0
233 484 -234 0
-233 484 234 0
-233 -484 -234 0
-234 -428 -34 0
-234 428 34 0
234 428 -34 0
234 -428 34 0
235 -236 -262 -268 -273 0
-235 273 0
-235 236 0
-235 268 0
-235 262 0
236 -237 -250 -254 -258 0
-236 258 0
-236 237 0
-236 254 0
-236 250 0
237 -238 -242 -246 247 0
-237 -247 0
-237 238 0
-237 246 0
-237 242 0
238 -239 240 0
238 -387 -388 -239 0
238 387 388 -239 0
-238 239 0
-238 387 -388 -240 0
-238 -387 388 -240 0
-239 389 390 233 0
239 -389 0
239 -233 0
239 -390 0
240 -482 241 0
240 482 -241 0
-240 482 241 0
-240 -482 -241 0
-241 -427 -33 0
-241 427 33 0
241 427 -33 0
241 -427 33 0
242 -240 243 0
242 -387 388 243 0
242 387 -388 243 0
-242 -243 0
-242 -387 -388 240 0
-242 387 388 240 0
243 385 -386 -244 0
-243 244 0
-243 386 0
-243 -385 0
244 -480 245 0
244 480 -245 0
-244 480 245 0
-244 -480 -245 0
-245 -426 -32 0
-245 426 32 0
245 426 -32 0
245 -426 32 0
246 385 -386 0
246 -386 -244 0
246 385 -244 0
246 -385 386 244 0
-246 -385 386 -244 0
-246 -385 -386 244 0
-246 385 386 244 0
-247 384 248 0
-247 383 384 0
-247 383 248 0
-247 -383 -384 -248 0
247 383 -384 -248 0
247 -383 384 -248 0
247 -383 -384 248 0
248 -478 249 0
248 478 -249 0
-248 478 249 0
-248 -478 -249 0
-249 -425 -31 0
-249 425 31 0
249 425 -31 0
249 -425 31 0
250 -251 252 0
250 -381 -382 -251 0
250 381 382 -251 0
-250 251 0
-250 381 -382 -252 0
-250 -381 382 -252 0
-251 383 384 248 0
251 -383 0
251 -248 0
251 -384 0
252 -476 253 0
252 476 -253 0
-252 476 253 0
-252 -476 -253 0
-253 -424 -30 0
-253 424 30 0
253 424 -30 0
253 -424 30 0
254 -252 255 0
254 -381 382 255 0
254 381 -382 255 0
-254 -255 0
-254 -381 -382 252 0
-254 381 382 252 0
255 379 -380 -256 0
-255 256 0
-255 380 0
-255 -379 0
256 -474 257 0
256 474 -257 0
-256 474 257 0
-256 -474 -257 0
-257 -423 -29 0
-257 423 29 0
257 423 -29 0
257 -423 29 0
258 377 378 -259 -260 0
258 -377 -378 -259 -260 0
258 -377 378 -259 260 0
258 377 -378 -259 260 0
-258 259 0
-258 377 -378 -260 0
-258 377 378 260 0
-258 -377 -378 260 0
-258 -377 378 -260 0
259 379 -380 0
259 -380 -256 0
259 379 -256 0
259 -379 380 256 0
-259 -379 380 -256 0
-259 -379 -380 256 0
-259 379 380 256 0
260 -472 261 0
260 472 -261 0
-260 472 261 0
-260 -472 -261 0
-261 -422 -28 0
-261 422 28 0
261 422 -28 0
261 -422 28 0
262 375 -376 263 265 0
262 375 376 -263 265 0
262 -375 376 263 265 0
262 -375 -376 -263 265 0
-262 -265 0
-262 375 376 263 0
-262 375 -376 -263 0
-262 -375 376 -263 0
-262 -375 -376 263 0
263 -470 264 0
263 470 -264 0
-263 470 264 0
-263 -470 -264 0
-264 -421 -27 0
-264 421 27 0
264 421 -27 0
264 -421 27 0
-265 266 0
-265 373 374 0
-265 -373 -374 0
265 373 -374 -266 0
265 -373 374 -266 0
266 -468 267 0
266 468 -267 0
-266 468 267 0
-266 -468 -267 0
-267 -420 -26 0
-267 420 26 0
267 420 -26 0
267 -420 26 0
268 371 -269 -271 0
268 -372 -269 -271 0
268 371 -372 -271 0
268 -371 372 269 -271 0
-268 -371 372 -269 0
-268 -371 -372 269 0
-268 271 0
-268 371 372 269 0
269 -466 270 0
269 466 -270 0
-269 466 270 0
-269 -466 -270 0
-270 -419 -25 0
-270 419 25 0
270 419 -25 0
270 -419 25 0
271 -266 272 0
271 -373 374 272 0
271 373 -374 272 0
-271 -272 0
-271 -373 -374 266 0
-271 373 374 266 0
272 371 -372 -269 0
-272 269 0
-272 372 0
-272 -371 0
273 -274 -280 -284 0
-273 274 0
-273 280 0
-273 284 0
274 369 -370 275 277 0
274 369 370 -275 277 0
274 -369 370 275 277 0
274 -369 -370 -275 277 0
-274 -277 0
-274 369 370 275 0
-274 369 -370 -275 0
-274 -369 370 -275 0
-274 -369 -370 275 0
275 -464 276 0
275 464 -276 0
-275 464 276 0
-275 -464 -276 0
-276 -418 -24 0
-276 418 24 0
276 418 -24 0
276 -418 24 0
-277 278 0
-277 367 368 0
-277 -367 -368 0
277 367 -368 -278 0
277 -367 368 -278 0
278 -462 279 0
278 462 -279 0
-278 462 279 0
-278 -462 -279 0
-279 -417 -23 0
-279 417 23 0
279 417 -23 0
279 -417 23 0
280 -278 281 0
280 -367 368 281 0
280 367 -368 281 0
-280 -281 0
-280 -367 -368 278 0
-280 367 368 278 0
281 365 -366 -282 0
-281 282 0
-281 366 0
-281 -365 0
282 -460 283 0
282 460 -283 0
-282 460 283 0
-282 -460 -283 0
-283 -416 -22 0
-283 416 22 0
283 416 -22 0
283 -416 22 0
284 -366 -282 285 0
284 365 -282 285 0
284 365 -366 285 0
284 -365 366 282 285 0
-284 -365 366 -282 0
-284 -365 -366 282 0
-284 -285 0
-284 365 366 282 0
285 363 -364 -286 0
-285 286 0
-285 364 0
-285 -363 0
286 -458 287 0
286 458 -287 0
-286 458 287 0
-286 -458 -287 0
-287 -415 -21 0
-287 415 21 0
287 415 -21 0
287 -415 21 0
288 -289 -315 -320 -327 0
-288 327 0
-288 289 0
-288 320 0
-288 315 0
289 -290 -303 -307 -311 0
-289 311 0
-289 290 0
-289 307 0
-289 303 0
290 -291 -295 296 -299 0
-290 299 0
-290 291 0
-290 -296 0
-290 295 0
291 361 -292 293 0
291 361 362 -292 0
291 362 -292 293 0
291 -361 -362 -292 -293 0
-291 361 -362 -293 0
-291 -361 -362 293 0
-291 292 0
-291 -361 362 -293 0
292 363 -364 0
292 -364 -286 0
292 363 -286 0
292 -363 364 286 0
-292 -363 364 -286 0
-292 -363 -364 286 0
-292 363 364 286 0
293 -456 294 0
293 456 -294 0
-293 456 294 0
-293 -456 -294 0
-294 -414 -20 0
-294 414 20 0
294 414 -20 0
294 -414 20 0
-295 361 362 293 0
295 -361 0
295 -293 0
295 -362 0
-296 297 0
-296 359 360 0
-296 -359 -360 0
296 359 -360 -297 0
296 -359 360 -297 0
297 -454 298 0
297 454 -298 0
-297 454 298 0
-297 -454 -298 0
-298 -413 -19 0
-298 413 19 0
298 413 -19 0
298 -413 19 0
299 -297 300 0
299 -359 360 300 0
299 359 -360 300 0
-299 -300 0
-299 -359 -360 297 0
-299 359 360 297 0
300 357 -358 -301 0
-300 301 0
-300 358 0
-300 -357 0
301 -452 302 0
301 452 -302 0
-301 452 302 0
-301 -452 -302 0
-302 -412 -18 0
-302 412 18 0
302 412 -18 0
302 -412 18 0
303 355 -304 305 0
303 355 356 -304 0
303 356 -304 305 0
303 -355 -356 -304 -305 0
-303 355 -356 -305 0
-303 -355 -356 305 0
-303 304 0
-303 -355 356 -305 0
304 357 -358 0
304 -358 -301 0
304 357 -301 0
304 -357 358 301 0
-304 -357 358 -301 0
-304 -357 -358 301 0
-304 357 358 301 0
305 -450 306 0
305 450 -306 0
-305 450 306 0
-305 -450 -306 0
-306 -411 -17 0
-306 411 17 0
306 411 -17 0
306 -411 17 0
307 -308 309 0
307 -353 -354 -308 0
307 353 354 -308 0
-307 308 0
-307 353 -354 -309 0
-307 -353 354 -309 0
-308 355 356 305 0
308 -355 0
308 -305 0
308 -356 0
309 -448 310 0
309 448 -310 0
-309 448 310 0
-309 -448 -310 0
-310 -410 -16 0
-310 410 16 0
310 410 -16 0
310 -410 16 0
311 -312 313 0
311 -351 -352 -312 0
311 351 352 -312 0
-311 312 0
-311 351 -352 -313 0
-311 -351 352 -313 0
312 -309 0
312 -353 354 0
312 353 -354 0
-312 -353 -354 309 0
-312 353 354 309 0
313 -446 314 0
313 446 -314 0
-313 446 314 0
-313 -446 -314 0
-314 -409 -15 0
-314 409 15 0
314 409 -15 0
314 -409 15 0
315 349 -316 -318 0
315 -350 -316 -318 0
315 349 -350 -318 0
315 -349 350 316 -318 0
-315 -349 350 -316 0
-315 -349 -350 316 0
-315 318 0
-315 349 350 316 0
316 -444 317 0
316 444 -317 0
-316 444 317 0
-316 -444 -317 0
-317 -408 -14 0
-317 408 14 0
317 408 -14 0
317 -408 14 0
318 -313 319 0
318 -351 352 319 0
318 351 -352 319 0
-318 -319 0
-318 -351 -352 313 0
-318 351 352 313 0
319 349 -350 -316 0
-319 316 0
-319 350 0
-319 -349 0
320 348 321 -323 0
320 347 321 -323 0
320 347 348 -323 0
320 -347 -348 -321 -323 0
-320 347 -348 -321 0
-320 -347 348 -321 0
-320 323 0
-320 -347 -348 321 0
321 -442 322 0
321 442 -322 0
-321 442 322 0
-321 -442 -322 0
-322 -407 -13 0
-322 407 13 0
322 407 -13 0
322 -407 13 0
323 346 -324 325 0
323 345 346 -324 0
323 345 -324 325 0
323 -345 -346 -324 -325 0
-323 345 -346 -325 0
-323 -345 -346 325 0
-323 324 0
-323 -345 346 -325 0
-324 347 348 321 0
324 -347 0
324 -321 0
324 -348 0
325 -440 326 0
325 440 -326 0
-325 440 326 0
-325 -440 -326 0
-326 -406 -12 0
-326 406 12 0
326 406 -12 0
326 -406 12 0
327 -328 -332 -336 337 0
-327 -337 0
-327 328 0
-327 336 0
-327 332 0
328 -329 330 0
328 -343 -344 -329 0
328 343 344 -329 0
-328 329 0
-328 343 -344 -330 0
-328 -343 344 -330 0
-329 345 346 325 0
329 -345 0
329 -325 0
329 -346 0
330 -438 331 0
330 438 -331 0
-330 438 331 0
-330 -438 -331 0
-331 -405 -11 0
-331 405 11 0
331 405 -11 0
331 -405 11 0
332 -330 333 0
332 -343 344 333 0
332 343 -344 333 0
-332 -333 0
-332 -343 -344 330 0
-332 343 344 330 0
333 341 -342 -334 0
-333 334 0
-333 342 0
-333 -341 0
334 -436 335 0
334 436 -335 0
-334 436 335 0
-334 -436 -335 0
-335 -404 -10 0
-335 404 10 0
335 404 -10 0
335 -404 10 0
336 341 -342 0
336 -342 -334 0
336 341 -334 0
336 -341 342 334 0
-336 -341 342 -334 0
-336 -341 -342 334 0
-336 341 342 334 0
-337 -433 -217 338 0
-337 -433 217 -338 0
-337 433 217 338 0
-337 433 -217 -338 0
337 -433 -217 -338 0
337 -433 217 338 0
337 433 217 -338 0
337 433 -217 338 0
-338 339 340 0
338 -339 0
338 -340 0
-495 0
2 0

